% File represents an instance of a Composite Structure problem to be solved by a CP framework
% Created on 2025-03-26 10:41:19.265
T = 52;
n = 9;
m = 12;
edges = [(2, 1),
(5, 4),
(7, 8),
(2, 3),
(5, 6),
(8, 9),
(1, 4),
(7, 4),
(2, 5),
(5, 8),
(3, 6),
(6, 9)];
counts = [|16, 4, 16, 14,
|16, 4, 16, 16,
|16, 4, 16, 12,
|14, 4, 14, 12,
|14, 4, 14, 16,
|14, 2, 14, 12,
|14, 6, 14, 12,
|14, 4, 14, 12,
|12, 2, 12, 12|];
